AirAmbulance/AirAmbulance.log
--- Job AirAmbulance.gms Start 07/02/20 15:15:34 31.1.0 r55b6ce3 WEX-WEI x86 64bit/MS Windows
--- Applying:
    E:\31.1\gmsprmNT.txt
--- GAMS Parameters defined
    Input C:\Users\hasee\Documents\GitHub\GAMS-MIRO\AirAmbulance\AirAmbulance.gms
    PageSize 0
    ScrDir C:\Users\hasee\Documents\GitHub\GAMS-MIRO\AirAmbulance\225a\
    SysDir E:\31.1\
    LogOption 3
    ErrMsg 1
    ErrorLog 99
    IDE 1
    GDX C:\Users\hasee\Documents\GitHub\GAMS-MIRO\AirAmbulance\res.gdx
    LstTitleLeftAligned 1
    IDCGenerateJSON conf_AirAmbulance/AirAmbulance_io.json
    IDCGenerateGDX data_AirAmbulance/default.gdx
GAMS 31.1.0   Copyright (C) 1987-2020 GAMS Development. All rights reserved
*** License has expired 23 days ago
Licensee: CS526 Advanced Linear Programming              G200210/0001AS-GEN
          Course License UW-Madison, Prof Ferris, Spring 2020        DCE515
          E:\31.1\gamslice.txt
          Evaluation license: Not for commercial or production use
--- Starting compilation
--- AirAmbulance.gms(68) 3 Mb
--- Starting execution: elapsed 0:00:00.012
--- AirAmbulance.gms(55) 4 Mb
--- Generating LP model AirAmbulance2
--- AirAmbulance.gms(56) 4 Mb
---   6 rows  21 columns  61 non-zeroes
--- Executing CPLEX: elapsed 0:00:00.039

IBM ILOG CPLEX   31.1.0 r55b6ce3 Released May 01, 2020 WEI x86 64bit/MS Window
--- GAMS/Cplex licensed for continuous and discrete problems.
Cplex 12.10.0.0

Reading data...
Starting Cplex...
Space for names approximately 0.00 Mb
Use option 'names no' to turn use of names off
Version identifier: 12.10.0.0 | 2019-11-26 | 843d4de2ae
CPXPARAM_Advance                                 0
CPXPARAM_Simplex_Display                         2
CPXPARAM_Threads                                 1
CPXPARAM_Parallel                                1
CPXPARAM_Simplex_Limits_Iterations               2000000000
CPXPARAM_TimeLimit                               1000
CPXPARAM_Tune_TimeLimit                          200
Tried aggregator 1 time.
LP Presolve eliminated 1 rows and 1 columns.
Reduced LP has 5 rows, 20 columns, and 40 nonzeros.
Presolve time = 0.30 sec. (0.01 ticks)

Iteration      Dual Objective            In Variable           Out Variable
     1            2236.067977                 z(5.4)      balance2(5) slack
     2            4836.067977                 z(3.2)      balance2(3) slack
     3            6798.618349                 z(5.2)      balance2(4) slack
     4            7161.869060                 z(5.1)      balance2(2) slack
LP status(1): optimal
Cplex Time: 0.30sec (det. 0.02 ticks)

Optimal solution found.
Objective :        7161.869060

--- Restarting execution
--- AirAmbulance.gms(56) 2 Mb
--- Reading solution for model AirAmbulance2
--- Executing after solve: elapsed 0:00:00.462
--- AirAmbulance.gms(68) 3 Mb
--- GDX File C:\Users\hasee\Documents\GitHub\GAMS-MIRO\AirAmbulance\res.gdx
--- GDX File C:\Users\hasee\Documents\GitHub\GAMS-MIRO\AirAmbulance\data_AirAmbulance/default.gdx
*** Status: Normal completion
--- Job AirAmbulance.gms Stop 07/02/20 15:15:35 elapsed 0:00:00.488

Warning in eval(ei, envir) :
  The alias of symbol: 'x' was selected to be overwritten. However, this symbol could not be found.
Warning in eval(ei, envir) :
  The alias of symbol: 'y' was selected to be overwritten. However, this symbol could not be found.
TRACE [2020-07-02 15:15:40] Logging facility initialised.
[1] "Installing: igraph"
trying URL 'https://cloud.r-project.org/bin/windows/contrib/4.0/igraph_1.2.5.zip'
Content type 'application/zip' length 9332804 bytes (8.9 MB)
=
==
===
====
======
=======
========
=========
==========
===========
============
=============
==============
===============
================
=================
==================
===================
====================
=====================
======================
=======================
========================
=========================
==========================
===========================
============================
=============================
==============================
===============================
================================
=================================
==================================
===================================
====================================
=====================================
======================================
=======================================
========================================
=========================================
==========================================
===========================================
============================================
=============================================
==============================================
===============================================
================================================
=================================================
==================================================
downloaded 8.9 MB

package 'igraph' successfully unpacked and MD5 sums checked

The downloaded binary packages are in
	C:\Users\hasee\AppData\Local\Temp\RtmpKWFHIq\downloaded_packages
DEBUG [2020-07-02 15:15:45] Database connection established.
DEBUG [2020-07-02 15:15:45] Access Control initialised.
WARN [2020-07-02 15:15:45] There are orphaned tables in your database: 'airambulance_x', 'airambulance_y'.
This could be caused because you used a different database schema in the past (e.g. due to different inputs and/or outputs). 
Note that you can remove orphaned database tables using the configuration mode ('Database management' section).
INFO [2020-07-02 15:15:45] New data: 'default.gdx' is being stored in the database. Please wait a until the import is finished.
DEBUG [2020-07-02 15:15:46] Db: Data was imported from table: '_sys_metadata_airambulance' (Db.importDataset).
DEBUG [2020-07-02 15:15:46] Db: 46 rows in table: '_sys_metadata_airambulance' were deleted. (Db.deleteRows)
DEBUG [2020-07-02 15:15:46] Db: Metadata (table: '_sys_metadata_airambulance') was written to database. (Db.writeMetadata).
DEBUG [2020-07-02 15:15:46] Db: Metadata (table: '_sys_metadata_airambulance') was added for scenario: 'default' (Scenario.writeMetadata).
DEBUG [2020-07-02 15:15:46] Db: Data was added to table: 'airambulance_assign' (Db.exportScenDataset).
DEBUG [2020-07-02 15:15:47] Db: Data was added to table: 'airambulance_numofheli' (Db.exportScenDataset).
DEBUG [2020-07-02 15:15:47] Db: Data was added to table: 'airambulance_locinfo' (Db.exportScenDataset).
DEBUG [2020-07-02 15:15:47] Db: Data was added to table: 'airambulance_d' (Db.exportScenDataset).
DEBUG [2020-07-02 15:15:47] Db: Data was added to table: 'airambulance_s' (Db.exportScenDataset).
DEBUG [2020-07-02 15:15:47] Db: Data was imported from table: '_sys_scenlocks_airambulance' (Db.importDataset).
DEBUG [2020-07-02 15:15:47] Db: 1 rows in table: '_sys_scenlocks_airambulance' were deleted. (Db.deleteRows)
DEBUG [2020-07-02 15:15:47] Db: hasee: Lock was added for scenario: '1' (Scenario.lock).
INFO [2020-07-02 15:15:53] Session started (model: 'airambulance', user: 'hasee', workdir: 'C:/Users/hasee/Documents/GitHub/GAMS-MIRO/AirAmbulance').
DEBUG [2020-07-02 15:15:54] Working directory was created: 'C:/Users/hasee/Documents/GitHub/GAMS-MIRO/AirAmbulance'.
DEBUG [2020-07-02 15:15:54] Db: Data was imported from table: '_sys_metadata_airambulance' (Db.importDataset).
DEBUG [2020-07-02 15:15:54] Scenario: '1' unlocked.
DEBUG [2020-07-02 15:15:54] Db: 1 rows in table: '_sys_scenlocks_airambulance' were deleted. (Db.deleteRows)
DEBUG [2020-07-02 15:15:55] Sidebar menu item: 'inputData' selected.
DEBUG [2020-07-02 15:15:55] Loading and rendering scenarios: '1'.
DEBUG [2020-07-02 15:15:55] Db: Data was imported from table: 'airambulance_assign' (Db.importDataset).
DEBUG [2020-07-02 15:15:55] Db: Data was imported from table: 'airambulance_numofheli' (Db.importDataset).
DEBUG [2020-07-02 15:15:55] Db: Data was imported from table: 'airambulance_locinfo' (Db.importDataset).
DEBUG [2020-07-02 15:15:55] Db: Data was imported from table: 'airambulance_d' (Db.importDataset).
DEBUG [2020-07-02 15:15:56] Db: Data was imported from table: 'airambulance_s' (Db.importDataset).
DEBUG [2020-07-02 15:15:56] Db: A table named: '_sys_scripts_airambulance' does not exist in the database (Db.importDataset).
DEBUG [2020-07-02 15:15:56] Scenario: 'New Scenario' closed.
DEBUG [2020-07-02 15:15:56] Db: Data was imported from table: '_sys_metadata_airambulance' (Db.importDataset).
DEBUG [2020-07-02 15:15:56] Db: Data was imported from table: '_sys_scenlocks_airambulance' (Db.importDataset).
DEBUG [2020-07-02 15:15:56] Db: hasee: Lock was added for scenario: '1' (Scenario.lock).
DEBUG [2020-07-02 15:15:56] Dataset: locinfo loaded successfully (mode: scen, overwrite: FALSE)
DEBUG [2020-07-02 15:15:56] Dataset: d loaded successfully (mode: scen, overwrite: FALSE)
DEBUG [2020-07-02 15:15:56] Dataset: s loaded successfully (mode: scen, overwrite: FALSE)
DEBUG [2020-07-02 15:15:57] Scenario: '1' was loaded into UI
INFO [2020-07-02 15:16:06] Session ended (model: 'airambulance', user: 'hasee').
